Route #1: 1 5 36 42 41 28 33 30 26 22 6 1
Route #2: 1 27 43 18 40 35 8 17 16 32 11 1
Route #3: 1 34 21 19 20 15 29 2 24 13 1
Route #4: 1 10 7 25 23 14 4 1
Route #5: 1 37 39 9 3 38 1
Route #6: 1 31 12 1
cost 828.2994987185939
